1
   1.00000000000000     
     6.0546155485708040   -0.0000000000000000    0.0000000000000000
     0.0000000000000000    6.0546155485708040    0.0000000000000000
     0.0000000000000000    0.0000000000000000    6.0546155485708040
   Co
    20
Direct
  0.0567002881416497  0.0567002881416497  0.0567002881416497
  0.4432996968583454  0.9432996968583455  0.5567003031416545
  0.9432996968583455  0.5567003031416545  0.4432996968583454
  0.5567003031416545  0.4432996968583454  0.9432996968583455
  0.8067003031416545  0.3067003031416546  0.1932997118583501
  0.6932996968583455  0.6932996968583455  0.6932996968583455
  0.3067003031416546  0.1932997118583501  0.8067003031416545
  0.1932997118583501  0.8067003031416545  0.3067003031416546
  0.1250000000000000  0.1988171211004362  0.4488171061004387
  0.3750000000000000  0.8011828938995617  0.9488171061004383
  0.8750000000000000  0.6988171061004383  0.0511828938995615
  0.6250000000000000  0.3011828938995613  0.5511828938995617
  0.4488171061004387  0.1250000000000000  0.1988171211004362
  0.9488171061004383  0.3750000000000000  0.8011828938995617
  0.0511828938995615  0.8750000000000000  0.6988171061004383
  0.5511828938995617  0.6250000000000000  0.3011828938995613
  0.1988171211004362  0.4488171061004387  0.1250000000000000
  0.8011828938995617  0.9488171061004383  0.3750000000000000
  0.6988171061004383  0.0511828938995615  0.8750000000000000
  0.3011828938995613  0.5511828938995617  0.6250000000000000
